language Essence 1.3

letting blksize_delta be
        function(1 --> 8, 2 --> 8, 3 --> 8, 4 --> 8, 5 --> 8, 6 --> 8, 7 --> 8, 8 --> 8, 9 --> 8, 10 --> 8, 11 --> 8,
                 12 --> 8, 13 --> 8, 14 --> 8, 15 --> 8, 16 --> 8, 17 --> 8, 18 --> 8, 19 --> 8, 20 --> 8, 21 --> 8,
                 22 --> 8, 23 --> 8, 24 --> 8, 25 --> 8, 26 --> 8, 27 --> 8, 28 --> 8, 29 --> 8, 30 --> 8, 31 --> 8,
                 32 --> 8, 33 --> 8)
letting maxcars be
        function(1 --> 8, 2 --> 8, 3 --> 8, 4 --> 8, 5 --> 8, 6 --> 8, 7 --> 8, 8 --> 8, 9 --> 9, 10 --> 8, 11 --> 10,
                 12 --> 8, 13 --> 8, 14 --> 8, 15 --> 8, 16 --> 8, 17 --> 8, 18 --> 10, 19 --> 8, 20 --> 8, 21 --> 9,
                 22 --> 8, 23 --> 8, 24 --> 9, 25 --> 10, 26 --> 8, 27 --> 8, 28 --> 8, 29 --> 8, 30 --> 8, 31 --> 8,
                 32 --> 8, 33 --> 8)
letting n_cars be 208
letting n_classes be 29
letting n_options be 33
letting quantity be
        function(1 --> 10, 2 --> 7, 3 --> 7, 4 --> 7, 5 --> 7, 6 --> 9, 7 --> 7, 8 --> 7, 9 --> 7, 10 --> 7, 11 --> 7,
                 12 --> 7, 13 --> 7, 14 --> 7, 15 --> 7, 16 --> 7, 17 --> 7, 18 --> 7, 19 --> 7, 20 --> 7, 21 --> 7,
                 22 --> 7, 23 --> 7, 24 --> 7, 25 --> 7, 26 --> 7, 27 --> 7, 28 --> 7, 29 --> 7)
letting usage be
        relation((1, 10), (1, 11), (2, 4), (2, 9), (2, 24), (2, 26), (2, 28), (2, 33), (3, 5), (3, 19), (3, 25),
                 (3, 31), (4, 7), (4, 17), (4, 25), (4, 26), (4, 28), (5, 3), (5, 8), (5, 16), (5, 17), (6, 8), (7, 7),
                 (7, 16), (7, 33), (8, 8), (8, 20), (8, 27), (9, 6), (9, 13), (9, 21), (9, 25), (9, 33), (10, 3),
                 (10, 8), (10, 27), (11, 10), (11, 22), (11, 23), (12, 12), (12, 20), (12, 28), (13, 17), (13, 24),
                 (13, 31), (14, 10), (14, 11), (14, 15), (14, 26), (15, 16), (16, 7), (16, 25), (16, 31), (17, 11),
                 (17, 15), (17, 16), (17, 24), (17, 26), (17, 27), (18, 2), (18, 5), (18, 8), (19, 2), (19, 11),
                 (19, 31), (19, 33), (20, 3), (20, 11), (20, 19), (20, 25), (21, 14), (21, 15), (22, 1), (22, 6),
                 (22, 11), (22, 22), (23, 31), (24, 4), (24, 6), (24, 16), (24, 24), (25, 13), (25, 25), (26, 3),
                 (26, 4), (26, 6), (26, 22), (26, 25), (26, 30), (27, 12), (27, 15), (27, 16), (27, 19), (27, 26),
                 (27, 30), (27, 31), (28, 9), (28, 17), (28, 18), (28, 29), (28, 30), (28, 31), (29, 11), (29, 12),
                 (29, 18), (29, 24), (29, 32))
$ Visualisation for usage
$  1 10
$  1 11
$  2  4
$  2  9
$  2 24
$  2 26
$  2 28
$  2 33
$  3  5
$  3 19
$  3 25
$  3 31
$  4  7
$  4 17
$  4 25
$  4 26
$  4 28
$  5  3
$  5  8
$  5 16
$  5 17
$  6  8
$  7  7
$  7 16
$  7 33
$  8  8
$  8 20
$  8 27
$  9  6
$  9 13
$  9 21
$  9 25
$  9 33
$ 10  3
$ 10  8
$ 10 27
$ 11 10
$ 11 22
$ 11 23
$ 12 12
$ 12 20
$ 12 28
$ 13 17
$ 13 24
$ 13 31
$ 14 10
$ 14 11
$ 14 15
$ 14 26
$ 15 16
$ 16  7
$ 16 25
$ 16 31
$ 17 11
$ 17 15
$ 17 16
$ 17 24
$ 17 26
$ 17 27
$ 18  2
$ 18  5
$ 18  8
$ 19  2
$ 19 11
$ 19 31
$ 19 33
$ 20  3
$ 20 11
$ 20 19
$ 20 25
$ 21 14
$ 21 15
$ 22  1
$ 22  6
$ 22 11
$ 22 22
$ 23 31
$ 24  4
$ 24  6
$ 24 16
$ 24 24
$ 25 13
$ 25 25
$ 26  3
$ 26  4
$ 26  6
$ 26 22
$ 26 25
$ 26 30
$ 27 12
$ 27 15
$ 27 16
$ 27 19
$ 27 26
$ 27 30
$ 27 31
$ 28  9
$ 28 17
$ 28 18
$ 28 29
$ 28 30
$ 28 31
$ 29 11
$ 29 12
$ 29 18
$ 29 24
$ 29 32

